
  12   12
  10   10   10   10   10   10   10   10   10   10   10   10

   0   0   0   0   0   0   0   0   0   0   0   0   0   5 2 3 6 10 11 
   7   0   1   0   1   1   0   0   0   0   0   0   0   3 9 7 5 
   1   0   0   0   0   0   0   0   1   0   0   0   1   1 4 
   8   1   0   0   0   0   0   0   0   0   0   0   0   3 9 8 7 
   7   0   0   1   8   0   1   0   0   0   0   0   0   1 8 
  10   0   0   8   0   0   6   1   0   0   0   5   0   1 7 
   3   0   9   0   6   7   0   0   0   1   0   0   5   1 12
   3   0   5   0   5   0   0   5   0   0   1   0   0   1 12
   6   0   0   6   0   0   0   0   7   0   6   0   9   1 12
   1   0   5   0   0   7   4   0   7   9   0   0   0   1 12
   4   9   0   0   0   0   9   9   0   0   8   0   0   1 12
   0   0   0   0   0   0   0   0   0   0   0   0   0   0 
